100
2426
5
86
67
81
54
99
0 3
0 5
0 6
0 7
0 8
0 12
0 19
0 22
0 27
0 30
0 33
0 34
0 35
0 36
0 37
0 38
0 41
0 44
0 45
0 46
0 55
0 56
0 58
0 61
0 62
0 63
0 65
0 66
0 67
0 68
0 69
0 70
0 71
0 72
0 76
0 77
0 78
0 81
0 84
0 85
0 86
0 92
0 97
0 99
1 2
1 4
1 5
1 8
1 12
1 14
1 17
1 20
1 21
1 22
1 23
1 25
1 27
1 30
1 33
1 34
1 40
1 42
1 44
1 45
1 47
1 50
1 54
1 55
1 56
1 57
1 58
1 59
1 62
1 66
1 68
1 70
1 71
1 72
1 73
1 75
1 76
1 80
1 82
1 84
1 86
1 87
1 90
1 91
1 92
1 94
1 97
1 99
2 4
2 5
2 6
2 7
2 9
2 10
2 11
2 12
2 15
2 18
2 19
2 20
2 25
2 31
2 35
2 37
2 38
2 40
2 44
2 45
2 52
2 53
2 55
2 58
2 60
2 62
2 64
2 65
2 67
2 71
2 72
2 73
2 76
2 77
2 81
2 86
2 87
2 89
2 92
2 93
2 94
3 4
3 6
3 7
3 8
3 10
3 12
3 13
3 14
3 17
3 19
3 21
3 24
3 25
3 26
3 28
3 30
3 33
3 36
3 37
3 39
3 40
3 41
3 42
3 44
3 49
3 51
3 53
3 54
3 56
3 58
3 61
3 62
3 65
3 66
3 67
3 69
3 71
3 73
3 74
3 75
3 76
3 77
3 78
3 82
3 83
3 84
3 87
3 88
3 91
3 92
3 94
3 96
3 97
3 99
4 5
4 8
4 11
4 12
4 14
4 15
4 16
4 17
4 18
4 24
4 28
4 29
4 31
4 32
4 34
4 39
4 42
4 45
4 46
4 47
4 48
4 49
4 50
4 52
4 53
4 54
4 55
4 56
4 58
4 59
4 64
4 66
4 67
4 70
4 71
4 76
4 77
4 79
4 89
4 93
4 94
4 95
4 96
4 97
4 98
5 8
5 9
5 10
5 11
5 16
5 17
5 18
5 19
5 20
5 22
5 23
5 25
5 26
5 27
5 28
5 30
5 31
5 32
5 33
5 34
5 38
5 40
5 42
5 45
5 46
5 47
5 52
5 54
5 55
5 56
5 58
5 59
5 62
5 64
5 67
5 68
5 69
5 71
5 75
5 77
5 78
5 80
5 82
5 83
5 85
5 86
5 87
5 91
5 93
5 94
5 95
5 96
5 97
5 99
6 7
6 8
6 9
6 11
6 12
6 13
6 16
6 20
6 27
6 28
6 30
6 33
6 34
6 36
6 38
6 39
6 40
6 46
6 51
6 60
6 61
6 63
6 64
6 66
6 67
6 68
6 70
6 71
6 74
6 75
6 77
6 78
6 79
6 80
6 82
6 83
6 84
6 85
6 86
6 87
6 88
6 91
6 92
6 93
6 95
6 97
7 11
7 12
7 13
7 14
7 18
7 23
7 26
7 27
7 29
7 31
7 32
7 33
7 34
7 35
7 37
7 38
7 39
7 44
7 45
7 48
7 50
7 54
7 55
7 57
7 59
7 60
7 65
7 72
7 74
7 75
7 79
7 80
7 81
7 82
7 84
7 86
7 87
7 91
7 92
7 94
7 96
7 97
7 99
8 10
8 14
8 16
8 21
8 24
8 28
8 29
8 31
8 32
8 33
8 38
8 44
8 45
8 46
8 47
8 56
8 57
8 58
8 60
8 61
8 62
8 63
8 64
8 66
8 70
8 73
8 74
8 76
8 82
8 83
8 84
8 85
8 86
8 87
8 88
8 90
8 93
8 95
8 98
8 99
9 11
9 12
9 14
9 16
9 21
9 22
9 25
9 29
9 30
9 33
9 34
9 35
9 37
9 38
9 39
9 44
9 46
9 51
9 52
9 53
9 61
9 63
9 66
9 69
9 73
9 77
9 78
9 79
9 81
9 82
9 84
9 86
9 89
9 90
9 92
9 93
9 95
9 96
9 97
10 13
10 15
10 17
10 22
10 24
10 25
10 26
10 28
10 30
10 34
10 38
10 39
10 40
10 41
10 42
10 43
10 45
10 46
10 47
10 49
10 53
10 54
10 56
10 58
10 62
10 67
10 70
10 73
10 74
10 75
10 77
10 79
10 82
10 83
10 87
10 90
10 93
10 95
10 97
11 15
11 22
11 27
11 28
11 29
11 30
11 31
11 36
11 39
11 41
11 42
11 43
11 44
11 45
11 46
11 47
11 48
11 49
11 50
11 51
11 52
11 54
11 55
11 56
11 61
11 63
11 66
11 67
11 72
11 73
11 75
11 76
11 79
11 82
11 84
11 85
11 86
11 87
11 89
11 91
11 92
11 96
12 15
12 16
12 20
12 22
12 24
12 25
12 28
12 31
12 32
12 33
12 34
12 36
12 37
12 40
12 47
12 48
12 49
12 53
12 54
12 56
12 57
12 58
12 60
12 62
12 64
12 65
12 66
12 70
12 71
12 72
12 75
12 76
12 77
12 78
12 79
12 80
12 83
12 86
12 88
12 93
12 94
13 17
13 18
13 20
13 21
13 25
13 26
13 29
13 30
13 31
13 32
13 33
13 36
13 39
13 41
13 43
13 44
13 46
13 47
13 48
13 51
13 61
13 62
13 67
13 68
13 72
13 75
13 79
13 80
13 81
13 86
13 88
13 91
13 92
13 94
13 98
14 15
14 17
14 19
14 22
14 23
14 26
14 28
14 29
14 30
14 31
14 37
14 38
14 43
14 44
14 45
14 48
14 49
14 52
14 54
14 55
14 56
14 58
14 59
14 60
14 61
14 63
14 66
14 71
14 77
14 80
14 81
14 82
14 83
14 86
14 88
14 89
14 90
14 93
14 94
14 95
14 96
14 99
15 17
15 18
15 22
15 23
15 24
15 25
15 26
15 30
15 33
15 34
15 36
15 37
15 40
15 41
15 42
15 47
15 49
15 50
15 51
15 53
15 54
15 55
15 60
15 65
15 66
15 67
15 69
15 72
15 74
15 75
15 77
15 78
15 80
15 83
15 85
15 88
15 89
15 90
15 93
15 94
15 95
15 98
16 17
16 18
16 20
16 23
16 25
16 27
16 31
16 36
16 37
16 38
16 40
16 41
16 44
16 46
16 49
16 51
16 52
16 53
16 55
16 57
16 61
16 63
16 64
16 65
16 66
16 67
16 68
16 70
16 74
16 75
16 77
16 80
16 81
16 82
16 83
16 84
16 85
16 87
16 90
16 92
16 97
17 19
17 21
17 22
17 23
17 24
17 25
17 26
17 28
17 29
17 31
17 32
17 33
17 34
17 37
17 38
17 39
17 43
17 45
17 52
17 53
17 54
17 59
17 61
17 63
17 64
17 67
17 68
17 69
17 71
17 72
17 73
17 76
17 79
17 84
17 85
17 93
17 95
17 97
17 98
17 99
18 21
18 22
18 25
18 28
18 29
18 30
18 32
18 33
18 35
18 37
18 38
18 39
18 41
18 42
18 43
18 45
18 47
18 48
18 49
18 50
18 51
18 54
18 55
18 56
18 57
18 59
18 60
18 61
18 63
18 65
18 66
18 72
18 76
18 78
18 80
18 82
18 86
18 87
18 90
18 91
18 92
18 96
18 98
19 20
19 21
19 22
19 23
19 24
19 25
19 26
19 27
19 28
19 31
19 33
19 34
19 36
19 38
19 40
19 41
19 42
19 43
19 44
19 45
19 46
19 51
19 53
19 55
19 57
19 61
19 66
19 67
19 70
19 76
19 77
19 79
19 81
19 83
19 84
19 85
19 87
19 88
19 90
19 91
19 92
19 93
19 97
19 98
19 99
20 21
20 22
20 27
20 28
20 30
20 34
20 37
20 38
20 41
20 42
20 44
20 45
20 46
20 47
20 48
20 49
20 50
20 54
20 58
20 59
20 64
20 65
20 66
20 67
20 68
20 69
20 70
20 72
20 74
20 75
20 77
20 78
20 79
20 80
20 82
20 88
20 90
20 96
20 97
20 98
20 99
21 22
21 24
21 25
21 26
21 27
21 30
21 31
21 33
21 35
21 36
21 38
21 39
21 45
21 47
21 48
21 49
21 50
21 51
21 53
21 55
21 56
21 57
21 59
21 62
21 63
21 65
21 68
21 69
21 71
21 73
21 76
21 77
21 81
21 84
21 85
21 91
21 96
21 97
21 98
21 99
22 24
22 25
22 26
22 27
22 29
22 30
22 31
22 32
22 33
22 35
22 39
22 40
22 42
22 45
22 46
22 47
22 50
22 51
22 52
22 54
22 56
22 57
22 58
22 62
22 63
22 66
22 67
22 68
22 69
22 70
22 72
22 74
22 75
22 77
22 78
22 80
22 81
22 83
22 84
22 86
22 88
22 89
22 90
22 91
22 93
22 95
22 99
23 25
23 26
23 28
23 29
23 30
23 32
23 34
23 35
23 39
23 41
23 43
23 44
23 45
23 46
23 47
23 48
23 53
23 54
23 57
23 59
23 61
23 62
23 64
23 65
23 68
23 69
23 70
23 71
23 75
23 77
23 78
23 79
23 81
23 82
23 83
23 84
23 87
23 90
23 92
23 93
23 94
23 97
24 25
24 27
24 28
24 31
24 32
24 33
24 38
24 40
24 41
24 44
24 45
24 47
24 51
24 52
24 54
24 55
24 56
24 58
24 60
24 63
24 64
24 67
24 68
24 71
24 72
24 73
24 74
24 76
24 77
24 78
24 79
24 80
24 82
24 83
24 84
24 91
24 92
24 93
24 96
24 97
24 98
25 27
25 29
25 34
25 35
25 36
25 37
25 39
25 41
25 46
25 47
25 48
25 50
25 52
25 53
25 58
25 59
25 62
25 63
25 65
25 66
25 67
25 68
25 76
25 79
25 83
25 90
25 91
25 92
25 98
25 99
26 27
26 29
26 30
26 31
26 34
26 35
26 37
26 44
26 45
26 47
26 49
26 51
26 52
26 54
26 55
26 60
26 62
26 63
26 64
26 65
26 66
26 68
26 69
26 70
26 72
26 75
26 79
26 80
26 81
26 85
26 86
26 88
26 89
26 94
26 95
26 97
26 98
26 99
27 29
27 30
27 31
27 33
27 35
27 39
27 40
27 42
27 44
27 45
27 46
27 47
27 49
27 51
27 52
27 53
27 54
27 57
27 58
27 60
27 61
27 64
27 65
27 66
27 68
27 73
27 74
27 75
27 76
27 77
27 80
27 82
27 83
27 84
27 87
27 88
27 93
27 94
27 95
27 96
27 98
28 29
28 33
28 42
28 48
28 49
28 50
28 51
28 52
28 55
28 58
28 59
28 62
28 64
28 68
28 69
28 71
28 72
28 75
28 77
28 80
28 83
28 84
28 85
28 87
28 88
28 92
28 94
28 97
28 98
29 30
29 31
29 32
29 33
29 38
29 39
29 40
29 43
29 44
29 46
29 47
29 48
29 50
29 51
29 52
29 53
29 54
29 57
29 58
29 60
29 64
29 67
29 68
29 70
29 71
29 75
29 76
29 77
29 78
29 84
29 86
29 87
29 90
29 93
29 97
29 99
30 31
30 36
30 37
30 38
30 43
30 44
30 45
30 47
30 51
30 54
30 57
30 62
30 66
30 67
30 71
30 72
30 78
30 81
30 82
30 85
30 88
30 89
30 93
30 95
30 97
30 98
30 99
31 32
31 34
31 35
31 36
31 37
31 38
31 41
31 43
31 44
31 45
31 46
31 47
31 49
31 51
31 53
31 54
31 55
31 58
31 59
31 60
31 61
31 62
31 67
31 68
31 70
31 74
31 76
31 79
31 81
31 83
31 84
31 85
31 86
31 87
31 88
31 89
31 93
31 94
31 97
31 98
32 33
32 35
32 39
32 42
32 44
32 46
32 48
32 49
32 50
32 51
32 52
32 56
32 59
32 60
32 64
32 65
32 67
32 68
32 70
32 74
32 76
32 77
32 78
32 79
32 80
32 81
32 82
32 83
32 85
32 86
32 87
32 89
32 91
32 92
32 94
32 96
32 98
33 34
33 37
33 38
33 39
33 40
33 42
33 43
33 46
33 48
33 50
33 51
33 53
33 54
33 56
33 57
33 58
33 59
33 64
33 65
33 66
33 73
33 75
33 76
33 79
33 80
33 81
33 83
33 86
33 87
33 88
33 89
33 90
33 92
33 93
33 94
33 97
33 98
33 99
34 35
34 38
34 40
34 42
34 43
34 44
34 48
34 51
34 53
34 54
34 56
34 57
34 59
34 60
34 64
34 65
34 66
34 75
34 76
34 80
34 84
34 88
34 91
34 92
34 94
34 95
34 96
34 97
34 98
34 99
35 36
35 37
35 39
35 41
35 43
35 46
35 53
35 54
35 56
35 57
35 61
35 62
35 66
35 68
35 69
35 72
35 74
35 78
35 79
35 80
35 82
35 84
35 86
35 89
35 93
35 94
35 95
35 97
36 37
36 38
36 40
36 43
36 44
36 45
36 47
36 49
36 50
36 51
36 52
36 53
36 54
36 55
36 56
36 57
36 59
36 60
36 63
36 65
36 66
36 67
36 68
36 69
36 70
36 74
36 76
36 77
36 79
36 80
36 82
36 84
36 87
36 89
36 91
36 92
36 93
36 95
36 97
36 98
36 99
37 39
37 40
37 41
37 43
37 45
37 46
37 48
37 51
37 53
37 55
37 56
37 58
37 61
37 68
37 69
37 72
37 73
37 74
37 76
37 78
37 82
37 83
37 84
37 85
37 87
37 88
37 89
37 90
37 92
37 93
37 94
37 98
37 99
38 41
38 43
38 46
38 47
38 48
38 49
38 50
38 51
38 53
38 55
38 56
38 57
38 58
38 59
38 60
38 62
38 69
38 70
38 72
38 77
38 78
38 79
38 80
38 84
38 85
38 86
38 87
38 89
38 92
38 95
38 96
38 98
39 42
39 43
39 45
39 46
39 47
39 50
39 51
39 53
39 54
39 57
39 58
39 63
39 67
39 68
39 71
39 73
39 74
39 76
39 77
39 82
39 84
39 85
39 87
39 88
39 92
39 93
39 95
39 98
40 41
40 45
40 46
40 48
40 49
40 51
40 54
40 56
40 59
40 60
40 61
40 62
40 63
40 68
40 74
40 80
40 83
40 84
40 91
40 98
40 99
41 43
41 45
41 46
41 48
41 49
41 50
41 51
41 52
41 53
41 54
41 55
41 56
41 57
41 58
41 59
41 60
41 62
41 66
41 67
41 69
41 71
41 73
41 74
41 77
41 79
41 80
41 85
41 86
41 88
41 89
41 90
41 91
41 95
41 96
41 98
41 99
42 46
42 50
42 51
42 52
42 55
42 58
42 59
42 68
42 69
42 71
42 72
42 73
42 74
42 76
42 77
42 79
42 81
42 84
42 86
42 87
42 88
42 91
42 93
42 97
43 44
43 46
43 47
43 51
43 54
43 61
43 65
43 66
43 67
43 69
43 70
43 72
43 73
43 76
43 77
43 80
43 89
43 90
43 91
43 93
43 95
43 96
43 97
43 98
43 99
44 47
44 48
44 50
44 52
44 53
44 54
44 59
44 61
44 62
44 63
44 66
44 67
44 69
44 70
44 71
44 74
44 75
44 76
44 77
44 80
44 81
44 82
44 83
44 85
44 86
44 91
44 92
44 93
44 95
44 97
44 98
45 46
45 51
45 53
45 54
45 58
45 59
45 65
45 66
45 68
45 71
45 72
45 73
45 74
45 76
45 77
45 78
45 79
45 81
45 83
45 86
45 87
45 89
45 90
45 91
45 92
45 95
46 50
46 52
46 53
46 54
46 56
46 59
46 60
46 63
46 64
46 65
46 70
46 71
46 72
46 73
46 75
46 76
46 78
46 79
46 80
46 82
46 83
46 86
46 91
46 96
46 97
46 99
47 48
47 49
47 50
47 52
47 53
47 57
47 58
47 59
47 60
47 61
47 64
47 68
47 70
47 75
47 76
47 77
47 81
47 85
47 86
47 89
47 93
47 95
47 96
48 49
48 50
48 52
48 54
48 56
48 57
48 58
48 61
48 62
48 63
48 64
48 67
48 69
48 72
48 76
48 78
48 79
48 81
48 82
48 84
48 86
48 88
48 91
48 92
48 93
48 94
48 95
48 97
48 98
49 50
49 56
49 60
49 64
49 65
49 69
49 70
49 73
49 77
49 81
49 83
49 84
49 85
49 86
49 87
49 88
49 90
49 92
49 96
49 98
50 51
50 55
50 59
50 62
50 67
50 69
50 70
50 75
50 76
50 77
50 78
50 82
50 83
50 86
50 89
50 90
50 92
50 96
50 98
51 52
51 53
51 54
51 55
51 57
51 59
51 60
51 62
51 67
51 69
51 71
51 73
51 75
51 76
51 77
51 78
51 79
51 80
51 81
51 82
51 83
51 86
51 87
51 88
51 90
51 93
51 98
52 56
52 57
52 58
52 59
52 60
52 64
52 65
52 66
52 68
52 70
52 71
52 74
52 77
52 78
52 80
52 82
52 83
52 84
52 87
52 88
52 89
52 96
53 54
53 55
53 56
53 57
53 59
53 61
53 62
53 67
53 70
53 71
53 73
53 78
53 79
53 81
53 82
53 86
53 87
53 91
53 93
53 94
53 96
53 98
54 55
54 61
54 62
54 64
54 66
54 67
54 69
54 72
54 75
54 79
54 81
54 82
54 83
54 85
54 88
54 90
54 95
55 56
55 58
55 60
55 64
55 65
55 66
55 69
55 70
55 72
55 74
55 76
55 85
55 87
55 92
55 93
55 94
55 96
55 97
55 99
56 58
56 59
56 60
56 61
56 62
56 66
56 73
56 74
56 75
56 81
56 82
56 83
56 84
56 85
56 86
56 87
56 91
56 92
56 93
56 95
56 99
57 58
57 59
57 60
57 62
57 64
57 65
57 66
57 68
57 70
57 71
57 73
57 74
57 77
57 79
57 80
57 81
57 84
57 85
57 87
57 88
57 91
57 93
57 95
57 98
58 62
58 64
58 68
58 72
58 74
58 79
58 81
58 82
58 83
58 85
58 86
58 89
58 90
58 96
58 98
58 99
59 65
59 68
59 75
59 78
59 80
59 81
59 83
59 86
59 90
59 91
59 92
59 94
59 96
60 63
60 64
60 66
60 67
60 68
60 70
60 71
60 72
60 73
60 75
60 78
60 79
60 81
60 82
60 85
60 93
60 98
61 63
61 66
61 69
61 70
61 72
61 73
61 74
61 77
61 79
61 83
61 84
61 85
61 87
61 88
61 90
61 91
61 94
61 97
61 99
62 63
62 70
62 72
62 73
62 74
62 75
62 76
62 78
62 80
62 85
62 86
62 87
62 89
62 93
62 96
63 64
63 66
63 67
63 68
63 72
63 73
63 74
63 78
63 79
63 80
63 86
63 88
63 92
63 94
63 96
63 97
63 98
63 99
64 66
64 67
64 68
64 69
64 70
64 71
64 73
64 74
64 75
64 77
64 78
64 79
64 80
64 82
64 83
64 86
64 87
64 88
64 90
64 92
64 94
64 95
64 96
64 97
64 98
64 99
65 69
65 70
65 73
65 74
65 77
65 81
65 82
65 83
65 85
65 86
65 88
65 89
65 92
65 93
65 94
65 98
65 99
66 67
66 68
66 70
66 72
66 73
66 80
66 82
66 83
66 84
66 86
66 89
66 90
66 92
66 93
66 97
66 99
67 68
67 69
67 70
67 74
67 77
67 80
67 82
67 83
67 84
67 85
67 86
67 88
67 89
67 90
67 91
67 92
67 95
67 96
67 99
68 69
68 70
68 71
68 74
68 77
68 78
68 80
68 82
68 83
68 85
68 88
68 89
68 92
68 97
68 98
69 72
69 76
69 79
69 84
69 85
69 89
69 90
69 91
69 92
69 96
69 97
69 98
69 99
70 71
70 72
70 75
70 77
70 78
70 83
70 84
70 86
70 87
70 88
70 89
70 91
70 92
70 94
70 98
70 99
71 73
71 75
71 76
71 79
71 80
71 85
71 86
71 88
71 89
71 91
71 93
71 94
71 96
72 74
72 75
72 76
72 78
72 82
72 85
72 86
72 90
72 91
72 92
72 95
72 96
72 97
72 98
72 99
73 74
73 75
73 78
73 80
73 86
73 88
73 90
73 92
73 95
73 96
73 97
73 99
74 75
74 76
74 78
74 80
74 83
74 84
74 86
74 87
74 88
74 91
74 95
74 97
74 99
75 77
75 80
75 82
75 83
75 87
75 89
75 91
75 92
75 95
75 96
76 80
76 84
76 87
76 94
76 98
77 79
77 80
77 81
77 84
77 85
77 86
77 88
77 89
77 90
77 94
77 95
77 99
78 79
78 80
78 81
78 82
78 84
78 85
78 86
78 87
78 88
78 92
78 94
78 98
79 81
79 82
79 83
79 84
79 87
79 90
79 95
79 98
80 82
80 83
80 88
80 91
80 93
80 94
80 95
80 97
81 84
81 85
81 86
81 92
81 93
81 94
81 97
81 98
81 99
82 84
82 87
82 91
82 95
82 96
83 86
83 87
83 89
83 90
83 91
83 95
83 99
84 85
84 87
84 89
84 90
84 92
84 94
84 95
84 97
84 98
84 99
85 87
85 88
85 90
85 91
85 92
85 94
85 96
85 97
85 98
86 87
86 88
86 90
86 92
86 95
86 96
86 97
86 98
87 88
87 89
87 90
87 92
87 94
88 89
88 90
88 91
88 96
89 92
89 93
89 94
89 95
89 96
89 98
89 99
90 91
90 93
90 94
90 95
90 98
91 92
91 93
92 93
92 96
93 94
93 97
93 99
94 95
94 96
94 97
94 99
96 99
97 99
98 99
21 30 76 77 31 43 82 25 33 71 48 95 93 70 7 88 29 34 1 19
90 99 96 11 73 28 85 46 39 51 38 45 57 97 23 65 2 24 91 17
52 8 81 49 47 87 5 89 56 40 84 66 44 67 69 83 6 16 86 53
98 26 94 37 68 64 10 4 62 27 9 18 0 13 42 22 59 78 79 20
15 74 54 12 63 14 50 32 58 36 61 55 3 80 41 35 92 75 60 72
